SPARKNaCl/why3-cvc5/sparknacl-sign.adb_282_22_postcondition_1.smt2
;; produced by cvc5.drv ;;
(set-logic ALL)
(set-info :smt-lib-version 2.6)
;;; generated by SMT-LIB2 driver
;;; SMT-LIB2 driver: bit-vectors, common part
;;; SMT-LIB2: integer arithmetic
(declare-sort i64 0)

;; "i64'int"
(declare-fun i64qtint (i64) Int)

;; "i64'axiom"
(assert
  (forall ((i i64))
    (and
      (<= (- 9223372036854775808) (i64qtint i))
      (<= (i64qtint i) 9223372036854775807))))

;; "in_range"
(define-fun in_range ((x Int)) Bool
  (and (<= (- 9223372036854775808) x) (<= x 9223372036854775807)))

;; "to_rep"
(define-fun to_rep ((x i64)) Int
  (i64qtint x))

;; "of_rep"
(declare-fun of_rep (Int) i64)

;; "inversion_axiom"
(assert
  (forall ((x i64)) (! (= (of_rep (to_rep x)) x) :pattern ((to_rep x)) )))

;; "range_axiom"
(assert (forall ((x i64)) (! (in_range (to_rep x)) :pattern ((to_rep x)) )))

;; "coerce_axiom"
(assert
  (forall ((x Int))
    (! (=> (in_range x) (= (to_rep (of_rep x)) x)) :pattern ((to_rep
                                                               (of_rep x))) )))

(declare-sort map1 0)

;; "has_bounds"
(declare-fun has_bounds (map1
  Int
  Int) Bool)

;; "get"
(declare-fun get (map1
  Int) i64)

(declare-const x map1)

(declare-sort xl_limb 0)

;; "xl_limb'int"
(declare-fun xl_limbqtint (xl_limb) Int)

;; "xl_limb'axiom"
(assert
  (forall ((i xl_limb))
    (and
      (<= (- 33299444949360) (xl_limbqtint i))
      (<= (xl_limbqtint i) 33299444949360))))

;; "in_range"
(define-fun in_range1 ((x1 Int)) Bool
  (and (<= (- 33299444949360) x1) (<= x1 33299444949360)))

;; "to_rep"
(define-fun to_rep1 ((x1 xl_limb)) Int
  (xl_limbqtint x1))

;; "of_rep"
(declare-fun of_rep1 (Int) xl_limb)

;; "inversion_axiom"
(assert
  (forall ((x1 xl_limb))
    (! (= (of_rep1 (to_rep1 x1)) x1) :pattern ((to_rep1 x1)) )))

;; "range_axiom"
(assert
  (forall ((x1 xl_limb))
    (! (in_range1 (to_rep1 x1)) :pattern ((to_rep1 x1)) )))

;; "coerce_axiom"
(assert
  (forall ((x1 Int))
    (! (=> (in_range1 x1) (= (to_rep1 (of_rep1 x1)) x1)) :pattern ((to_rep1
                                                                    (of_rep1
                                                                    x1))) )))

(declare-sort map2 0)

;; "has_bounds"
(declare-fun has_bounds1 (map2
  Int
  Int) Bool)

;; "get"
(declare-fun get1 (map2
  Int) xl_limb)

;; "set"
(declare-fun set (map2
  Int
  xl_limb) map2)

;; "set_eq"
(assert
  (forall ((a map2) (i Int) (v xl_limb))
    (! (= (get1 (set a i v) i) v) :pattern ((set a i v)) )))

;; "set_neq"
(assert
  (forall ((a map2) (i Int) (v xl_limb))
    (! (forall ((j Int))
         (! (=> (not (= i j)) (= (get1 (set a i v) j) (get1 a j))) :pattern (
         (get1
           a
           j)) :pattern ((get1 (set a i v) j)) )) :pattern ((set a i v)) )))

;; "set_has_bounds"
(assert
  (forall ((a map2) (i Int) (f Int) (l Int) (v xl_limb))
    (! (=>
         (and (<= f i) (<= i l))
         (=> (has_bounds1 a f l) (has_bounds1 (set a i v) f l))) :pattern (
    (has_bounds1
      (set a i v)
      f
      l)) )))

;; "temp_____aggregate_def_2288"
(declare-fun temp_____aggregate_def_2288 (Int) map2)

(declare-const rliteral xl_limb)

;; "rliteral_axiom"
(assert (= (xl_limbqtint rliteral) 0))

;; Goal "def'vc"
;; File "sparknacl-sign.adb", line 278, characters 0-0
(assert
  (not
  (forall ((xl map2))
    (=>
      (has_bounds x 0 63)
      (=>
        (has_bounds x 0 63)
        (=>
          (has_bounds1 xl 0 63)
          (=>
            (forall ((k Int))
              (=>
                (and (<= 0 k) (<= k 63))
                (let ((temp___2311 (to_rep (get x k))))
                  (and (<= 0 temp___2311) (<= temp___2311 2081055)))))
            (forall ((temp___2292 map2))
              (=>
                (and
                  (and
                    (has_bounds1 temp___2292 0 63)
                    (forall ((temp___2291 Int))
                      (! (=>
                           (and (<= 0 temp___2291) (<= temp___2291 63))
                           (= (get1 temp___2292 temp___2291) rliteral)) :pattern (
                      (get1
                        temp___2292
                        temp___2291)) )))
                  (= temp___2292 (temp_____aggregate_def_2288 0)))
                (forall ((xl1 map2))
                  (=>
                    (= xl1 temp___2292)
                    (forall ((xl2 map2))
                      (=>
                        (exists ((k Int))
                          (and
                            (= k 0)
                            (ite (= (and (ite (<= 0 k) true false) (ite (<= k 63)
                                                                    true
                                                                    false)) true)
                              (exists ((o Int))
                                (and
                                  (= (to_rep (get x k)) o)
                                  (and
                                    (in_range1 o)
                                    (exists ((o1 xl_limb))
                                      (and
                                        (= (to_rep1 o1) o)
                                        (exists ((xl3 map2))
                                          (and
                                            (= xl3 (set xl1 k o1))
                                            (exists ((k1 Int))
                                              (and
                                                (forall ((a Int))
                                                  (=>
                                                    (and (<= 0 a) (<= a k1))
                                                    (= (to_rep1 (get1 xl2 a)) 
                                                    (to_rep
                                                      (get x a)))))
                                                (and
                                                  (= (and (ite (and
                                                                 (has_bounds1
                                                                   xl2
                                                                   0
                                                                   63)
                                                                 (forall 
                                                                   ((temp___2299 Int))
                                                                   (=>
                                                                    (and
                                                                    (<= 0 temp___2299)
                                                                    (<= temp___2299 63))
                                                                    (=>
                                                                    (or
                                                                    (< 63 temp___2299)
                                                                    (or
                                                                    (< temp___2299 0)
                                                                    (< k1 temp___2299)))
                                                                    (= 
                                                                    (get1
                                                                    xl2
                                                                    temp___2299) 
                                                                    (get1
                                                                    xl1
                                                                    temp___2299))))))
                                                            true
                                                            false) (ite 
                                                                    (and
                                                                    (<= 0 k1)
                                                                    (<= k1 63))
                                                                    true
                                                                    false)) true)
                                                  (= k1 63)))))))))))
                              (= xl2 xl1))))
                        (forall ((k Int))
                          (=>
                            (and (<= 0 k) (<= k 63))
                            (<= 0 (to_rep1 (get1 xl2 k))))))))))))))))))

(check-sat)
